p tw 576 2464
1 33
2 34
3 35
4 36
5 37
6 38
7 39
8 40
9 41
10 42
11 43
12 44
13 45
14 46
15 47
16 48
17 49
18 50
19 51
20 52
21 53
22 54
23 55
24 56
25 57
26 58
27 59
28 60
29 61
30 62
31 63
32 64
33 65
33 66
33 67
33 68
33 69
34 67
34 88
34 103
34 104
34 105
35 123
35 132
35 137
35 158
35 160
36 72
36 143
36 151
36 153
36 154
37 68
37 91
37 119
37 120
37 121
38 91
38 92
38 93
38 94
38 95
39 76
39 104
39 135
39 145
39 147
40 77
40 114
40 136
40 151
40 152
41 86
41 97
41 106
41 110
41 111
42 107
42 112
42 116
42 117
42 118
43 66
43 79
43 88
43 89
43 90
44 103
44 112
44 113
44 114
44 115
45 65
45 70
45 71
45 72
45 73
46 74
46 75
46 76
46 77
46 78
47 92
47 98
47 110
47 122
47 125
48 85
48 106
48 107
48 108
48 109
49 82
49 119
49 142
49 143
49 144
50 70
50 84
50 85
50 86
50 87
51 101
51 108
51 148
51 155
51 157
52 84
52 96
52 100
52 101
52 102
53 130
53 139
53 148
53 149
53 150
54 117
54 134
54 139
54 140
54 141
55 79
55 80
55 81
55 82
55 83
56 71
56 94
56 116
56 126
56 129
57 74
57 96
57 97
57 98
57 99
58 134
58 135
58 136
58 137
58 138
59 127
59 140
59 153
59 155
59 156
60 100
60 120
60 142
60 145
60 146
61 80
61 113
61 122
61 123
61 124
62 75
62 130
62 131
62 132
62 133
63 89
63 131
63 149
63 158
63 159
64 81
64 93
64 126
64 127
64 128
65 66
65 67
65 68
65 69
65 70
65 71
65 72
65 73
66 67
66 68
66 69
66 79
66 88
66 89
66 90
67 68
67 69
67 88
67 103
67 104
67 105
68 69
68 91
68 119
68 120
68 121
69 161
69 162
69 163
69 164
69 165
70 71
70 72
70 73
70 84
70 85
70 86
70 87
71 72
71 73
71 94
71 116
71 126
71 129
72 73
72 143
72 151
72 153
72 154
73 161
73 166
73 167
73 168
73 169
74 75
74 76
74 77
74 78
74 96
74 97
74 98
74 99
75 76
75 77
75 78
75 130
75 131
75 132
75 133
76 77
76 78
76 104
76 135
76 145
76 147
77 78
77 114
77 136
77 151
77 152
78 170
78 171
78 172
78 173
78 174
79 80
79 81
79 82
79 83
79 88
79 89
79 90
80 81
80 82
80 83
80 113
80 122
80 123
80 124
81 82
81 83
81 93
81 126
81 127
81 128
82 83
82 119
82 142
82 143
82 144
83 175
83 176
83 177
83 178
83 179
84 85
84 86
84 87
84 96
84 100
84 101
84 102
85 86
85 87
85 106
85 107
85 108
85 109
86 87
86 97
86 106
86 110
86 111
87 166
87 180
87 181
87 182
87 183
88 89
88 90
88 103
88 104
88 105
89 90
89 131
89 149
89 158
89 159
90 162
90 175
90 184
90 185
90 186
91 92
91 93
91 94
91 95
91 119
91 120
91 121
92 93
92 94
92 95
92 98
92 110
92 122
92 125
93 94
93 95
93 126
93 127
93 128
94 95
94 116
94 126
94 129
95 187
95 188
95 189
95 190
95 191
96 97
96 98
96 99
96 100
96 101
96 102
97 98
97 99
97 106
97 110
97 111
98 99
98 110
98 122
98 125
99 170
99 192
99 193
99 194
99 195
100 101
100 102
100 120
100 142
100 145
100 146
101 102
101 108
101 148
101 155
101 157
102 180
102 192
102 196
102 197
102 198
103 104
103 105
103 112
103 113
103 114
103 115
104 105
104 135
104 145
104 147
105 163
105 184
105 199
105 200
105 201
106 107
106 108
106 109
106 110
106 111
107 108
107 109
107 112
107 116
107 117
107 118
108 109
108 148
108 155
108 157
109 181
109 202
109 203
109 204
109 205
110 111
110 122
110 125
111 182
111 193
111 202
111 206
111 207
112 113
112 114
112 115
112 116
112 117
112 118
113 114
113 115
113 122
113 123
113 124
114 115
114 136
114 151
114 152
115 199
115 208
115 209
115 210
115 211
116 117
116 118
116 126
116 129
117 118
117 134
117 139
117 140
117 141
118 203
118 208
118 212
118 213
118 214
119 120
119 121
119 142
119 143
119 144
120 121
120 142
120 145
120 146
121 164
121 187
121 215
121 216
121 217
122 123
122 124
122 125
123 124
123 132
123 137
123 158
123 160
124 176
124 209
124 218
124 219
124 220
125 188
125 194
125 206
125 218
125 221
126 127
126 128
126 129
127 128
127 140
127 153
127 155
127 156
128 177
128 189
128 222
128 223
128 224
129 167
129 190
129 212
129 222
129 225
130 131
130 132
130 133
130 139
130 148
130 149
130 150
131 132
131 133
131 149
131 158
131 159
132 133
132 137
132 158
132 160
133 171
133 226
133 227
133 228
133 229
134 135
134 136
134 137
134 138
134 139
134 140
134 141
135 136
135 137
135 138
135 145
135 147
136 137
136 138
136 151
136 152
137 138
137 158
137 160
138 230
138 231
138 232
138 233
138 234
139 140
139 141
139 148
139 149
139 150
140 141
140 153
140 155
140 156
141 213
141 230
141 235
141 236
141 237
142 143
142 144
142 145
142 146
143 144
143 151
143 153
143 154
144 178
144 215
144 238
144 239
144 240
145 146
145 147
146 196
146 216
146 238
146 241
146 242
147 172
147 200
147 231
147 241
147 243
148 149
148 150
148 155
148 157
149 150
149 158
149 159
150 226
150 235
150 244
150 245
150 246
151 152
151 153
151 154
152 173
152 210
152 232
152 247
152 248
153 154
153 155
153 156
154 168
154 239
154 247
154 249
154 250
155 156
155 157
156 223
156 236
156 249
156 251
156 252
157 197
157 204
157 244
157 251
157 253
158 159
158 160
159 185
159 227
159 245
159 254
159 255
160 219
160 228
160 233
160 254
160 256
161 162
161 163
161 164
161 165
161 166
161 167
161 168
161 169
162 163
162 164
162 165
162 175
162 184
162 185
162 186
163 164
163 165
163 184
163 199
163 200
163 201
164 165
164 187
164 215
164 216
164 217
165 257
165 258
165 259
165 260
165 261
166 167
166 168
166 169
166 180
166 181
166 182
166 183
167 168
167 169
167 190
167 212
167 222
167 225
168 169
168 239
168 247
168 249
168 250
169 257
169 262
169 263
169 264
169 265
170 171
170 172
170 173
170 174
170 192
170 193
170 194
170 195
171 172
171 173
171 174
171 226
171 227
171 228
171 229
172 173
172 174
172 200
172 231
172 241
172 243
173 174
173 210
173 232
173 247
173 248
174 266
174 267
174 268
174 269
174 270
175 176
175 177
175 178
175 179
175 184
175 185
175 186
176 177
176 178
176 179
176 209
176 218
176 219
176 220
177 178
177 179
177 189
177 222
177 223
177 224
178 179
178 215
178 238
178 239
178 240
179 271
179 272
179 273
179 274
179 275
180 181
180 182
180 183
180 192
180 196
180 197
180 198
181 182
181 183
181 202
181 203
181 204
181 205
182 183
182 193
182 202
182 206
182 207
183 262
183 276
183 277
183 278
183 279
184 185
184 186
184 199
184 200
184 201
185 186
185 227
185 245
185 254
185 255
186 258
186 271
186 280
186 281
186 282
187 188
187 189
187 190
187 191
187 215
187 216
187 217
188 189
188 190
188 191
188 194
188 206
188 218
188 221
189 190
189 191
189 222
189 223
189 224
190 191
190 212
190 222
190 225
191 283
191 284
191 285
191 286
191 287
192 193
192 194
192 195
192 196
192 197
192 198
193 194
193 195
193 202
193 206
193 207
194 195
194 206
194 218
194 221
195 266
195 288
195 289
195 290
195 291
196 197
196 198
196 216
196 238
196 241
196 242
197 198
197 204
197 244
197 251
197 253
198 276
198 288
198 292
198 293
198 294
199 200
199 201
199 208
199 209
199 210
199 211
200 201
200 231
200 241
200 243
201 259
201 280
201 295
201 296
201 297
202 203
202 204
202 205
202 206
202 207
203 204
203 205
203 208
203 212
203 213
203 214
204 205
204 244
204 251
204 253
205 277
205 298
205 299
205 300
205 301
206 207
206 218
206 221
207 278
207 289
207 298
207 302
207 303
208 209
208 210
208 211
208 212
208 213
208 214
209 210
209 211
209 218
209 219
209 220
210 211
210 232
210 247
210 248
211 295
211 304
211 305
211 306
211 307
212 213
212 214
212 222
212 225
213 214
213 230
213 235
213 236
213 237
214 299
214 304
214 308
214 309
214 310
215 216
215 217
215 238
215 239
215 240
216 217
216 238
216 241
216 242
217 260
217 283
217 311
217 312
217 313
218 219
218 220
218 221
219 220
219 228
219 233
219 254
219 256
220 272
220 305
220 314
220 315
220 316
221 284
221 290
221 302
221 314
221 317
222 223
222 224
222 225
223 224
223 236
223 249
223 251
223 252
224 273
224 285
224 318
224 319
224 320
225 263
225 286
225 308
225 318
225 321
226 227
226 228
226 229
226 235
226 244
226 245
226 246
227 228
227 229
227 245
227 254
227 255
228 229
228 233
228 254
228 256
229 267
229 322
229 323
229 324
229 325
230 231
230 232
230 233
230 234
230 235
230 236
230 237
231 232
231 233
231 234
231 241
231 243
232 233
232 234
232 247
232 248
233 234
233 254
233 256
234 326
234 327
234 328
234 329
234 330
235 236
235 237
235 244
235 245
235 246
236 237
236 249
236 251
236 252
237 309
237 326
237 331
237 332
237 333
238 239
238 240
238 241
238 242
239 240
239 247
239 249
239 250
240 274
240 311
240 334
240 335
240 336
241 242
241 243
242 292
242 312
242 334
242 337
242 338
243 268
243 296
243 327
243 337
243 339
244 245
244 246
244 251
244 253
245 246
245 254
245 255
246 322
246 331
246 340
246 341
246 342
247 248
247 249
247 250
248 269
248 306
248 328
248 343
248 344
249 250
249 251
249 252
250 264
250 335
250 343
250 345
250 346
251 252
251 253
252 319
252 332
252 345
252 347
252 348
253 293
253 300
253 340
253 347
253 349
254 255
254 256
255 281
255 323
255 341
255 350
255 351
256 315
256 324
256 329
256 350
256 352
257 258
257 259
257 260
257 261
257 262
257 263
257 264
257 265
258 259
258 260
258 261
258 271
258 280
258 281
258 282
259 260
259 261
259 280
259 295
259 296
259 297
260 261
260 283
260 311
260 312
260 313
261 353
261 354
261 355
261 356
261 357
262 263
262 264
262 265
262 276
262 277
262 278
262 279
263 264
263 265
263 286
263 308
263 318
263 321
264 265
264 335
264 343
264 345
264 346
265 353
265 358
265 359
265 360
265 361
266 267
266 268
266 269
266 270
266 288
266 289
266 290
266 291
267 268
267 269
267 270
267 322
267 323
267 324
267 325
268 269
268 270
268 296
268 327
268 337
268 339
269 270
269 306
269 328
269 343
269 344
270 362
270 363
270 364
270 365
270 366
271 272
271 273
271 274
271 275
271 280
271 281
271 282
272 273
272 274
272 275
272 305
272 314
272 315
272 316
273 274
273 275
273 285
273 318
273 319
273 320
274 275
274 311
274 334
274 335
274 336
275 367
275 368
275 369
275 370
275 371
276 277
276 278
276 279
276 288
276 292
276 293
276 294
277 278
277 279
277 298
277 299
277 300
277 301
278 279
278 289
278 298
278 302
278 303
279 358
279 372
279 373
279 374
279 375
280 281
280 282
280 295
280 296
280 297
281 282
281 323
281 341
281 350
281 351
282 354
282 367
282 376
282 377
282 378
283 284
283 285
283 286
283 287
283 311
283 312
283 313
284 285
284 286
284 287
284 290
284 302
284 314
284 317
285 286
285 287
285 318
285 319
285 320
286 287
286 308
286 318
286 321
287 379
287 380
287 381
287 382
287 383
288 289
288 290
288 291
288 292
288 293
288 294
289 290
289 291
289 298
289 302
289 303
290 291
290 302
290 314
290 317
291 362
291 384
291 385
291 386
291 387
292 293
292 294
292 312
292 334
292 337
292 338
293 294
293 300
293 340
293 347
293 349
294 372
294 384
294 388
294 389
294 390
295 296
295 297
295 304
295 305
295 306
295 307
296 297
296 327
296 337
296 339
297 355
297 376
297 391
297 392
297 393
298 299
298 300
298 301
298 302
298 303
299 300
299 301
299 304
299 308
299 309
299 310
300 301
300 340
300 347
300 349
301 373
301 394
301 395
301 396
301 397
302 303
302 314
302 317
303 374
303 385
303 394
303 398
303 399
304 305
304 306
304 307
304 308
304 309
304 310
305 306
305 307
305 314
305 315
305 316
306 307
306 328
306 343
306 344
307 391
307 400
307 401
307 402
307 403
308 309
308 310
308 318
308 321
309 310
309 326
309 331
309 332
309 333
310 395
310 400
310 404
310 405
310 406
311 312
311 313
311 334
311 335
311 336
312 313
312 334
312 337
312 338
313 356
313 379
313 407
313 408
313 409
314 315
314 316
314 317
315 316
315 324
315 329
315 350
315 352
316 368
316 401
316 410
316 411
316 412
317 380
317 386
317 398
317 410
317 413
318 319
318 320
318 321
319 320
319 332
319 345
319 347
319 348
320 369
320 381
320 414
320 415
320 416
321 359
321 382
321 404
321 414
321 417
322 323
322 324
322 325
322 331
322 340
322 341
322 342
323 324
323 325
323 341
323 350
323 351
324 325
324 329
324 350
324 352
325 363
325 418
325 419
325 420
325 421
326 327
326 328
326 329
326 330
326 331
326 332
326 333
327 328
327 329
327 330
327 337
327 339
328 329
328 330
328 343
328 344
329 330
329 350
329 352
330 422
330 423
330 424
330 425
330 426
331 332
331 333
331 340
331 341
331 342
332 333
332 345
332 347
332 348
333 405
333 422
333 427
333 428
333 429
334 335
334 336
334 337
334 338
335 336
335 343
335 345
335 346
336 370
336 407
336 430
336 431
336 432
337 338
337 339
338 388
338 408
338 430
338 433
338 434
339 364
339 392
339 423
339 433
339 435
340 341
340 342
340 347
340 349
341 342
341 350
341 351
342 418
342 427
342 436
342 437
342 438
343 344
343 345
343 346
344 365
344 402
344 424
344 439
344 440
345 346
345 347
345 348
346 360
346 431
346 439
346 441
346 442
347 348
347 349
348 415
348 428
348 441
348 443
348 444
349 389
349 396
349 436
349 443
349 445
350 351
350 352
351 377
351 419
351 437
351 446
351 447
352 411
352 420
352 425
352 446
352 448
353 354
353 355
353 356
353 357
353 358
353 359
353 360
353 361
354 355
354 356
354 357
354 367
354 376
354 377
354 378
355 356
355 357
355 376
355 391
355 392
355 393
356 357
356 379
356 407
356 408
356 409
357 449
357 450
357 451
357 452
357 453
358 359
358 360
358 361
358 372
358 373
358 374
358 375
359 360
359 361
359 382
359 404
359 414
359 417
360 361
360 431
360 439
360 441
360 442
361 449
361 454
361 455
361 456
361 457
362 363
362 364
362 365
362 366
362 384
362 385
362 386
362 387
363 364
363 365
363 366
363 418
363 419
363 420
363 421
364 365
364 366
364 392
364 423
364 433
364 435
365 366
365 402
365 424
365 439
365 440
366 458
366 459
366 460
366 461
366 462
367 368
367 369
367 370
367 371
367 376
367 377
367 378
368 369
368 370
368 371
368 401
368 410
368 411
368 412
369 370
369 371
369 381
369 414
369 415
369 416
370 371
370 407
370 430
370 431
370 432
371 463
371 464
371 465
371 466
371 467
372 373
372 374
372 375
372 384
372 388
372 389
372 390
373 374
373 375
373 394
373 395
373 396
373 397
374 375
374 385
374 394
374 398
374 399
375 454
375 468
375 469
375 470
375 471
376 377
376 378
376 391
376 392
376 393
377 378
377 419
377 437
377 446
377 447
378 450
378 463
378 472
378 473
378 474
379 380
379 381
379 382
379 383
379 407
379 408
379 409
380 381
380 382
380 383
380 386
380 398
380 410
380 413
381 382
381 383
381 414
381 415
381 416
382 383
382 404
382 414
382 417
383 475
383 476
383 477
383 478
383 479
384 385
384 386
384 387
384 388
384 389
384 390
385 386
385 387
385 394
385 398
385 399
386 387
386 398
386 410
386 413
387 458
387 480
387 481
387 482
387 483
388 389
388 390
388 408
388 430
388 433
388 434
389 390
389 396
389 436
389 443
389 445
390 468
390 480
390 484
390 485
390 486
391 392
391 393
391 400
391 401
391 402
391 403
392 393
392 423
392 433
392 435
393 451
393 472
393 487
393 488
393 489
394 395
394 396
394 397
394 398
394 399
395 396
395 397
395 400
395 404
395 405
395 406
396 397
396 436
396 443
396 445
397 469
397 490
397 491
397 492
397 493
398 399
398 410
398 413
399 470
399 481
399 490
399 494
399 495
400 401
400 402
400 403
400 404
400 405
400 406
401 402
401 403
401 410
401 411
401 412
402 403
402 424
402 439
402 440
403 487
403 496
403 497
403 498
403 499
404 405
404 406
404 414
404 417
405 406
405 422
405 427
405 428
405 429
406 491
406 496
406 500
406 501
406 502
407 408
407 409
407 430
407 431
407 432
408 409
408 430
408 433
408 434
409 452
409 475
409 503
409 504
409 505
410 411
410 412
410 413
411 412
411 420
411 425
411 446
411 448
412 464
412 497
412 506
412 507
412 508
413 476
413 482
413 494
413 506
413 509
414 415
414 416
414 417
415 416
415 428
415 441
415 443
415 444
416 465
416 477
416 510
416 511
416 512
417 455
417 478
417 500
417 510
417 513
418 419
418 420
418 421
418 427
418 436
418 437
418 438
419 420
419 421
419 437
419 446
419 447
420 421
420 425
420 446
420 448
421 459
421 514
421 515
421 516
421 517
422 423
422 424
422 425
422 426
422 427
422 428
422 429
423 424
423 425
423 426
423 433
423 435
424 425
424 426
424 439
424 440
425 426
425 446
425 448
426 518
426 519
426 520
426 521
426 522
427 428
427 429
427 436
427 437
427 438
428 429
428 441
428 443
428 444
429 501
429 518
429 523
429 524
429 525
430 431
430 432
430 433
430 434
431 432
431 439
431 441
431 442
432 466
432 503
432 526
432 527
432 528
433 434
433 435
434 484
434 504
434 526
434 529
434 530
435 460
435 488
435 519
435 529
435 531
436 437
436 438
436 443
436 445
437 438
437 446
437 447
438 514
438 523
438 532
438 533
438 534
439 440
439 441
439 442
440 461
440 498
440 520
440 535
440 536
441 442
441 443
441 444
442 456
442 527
442 535
442 537
442 538
443 444
443 445
444 511
444 524
444 537
444 539
444 540
445 485
445 492
445 532
445 539
445 541
446 447
446 448
447 473
447 515
447 533
447 542
447 543
448 507
448 516
448 521
448 542
448 544
449 450
449 451
449 452
449 453
449 454
449 455
449 456
449 457
450 451
450 452
450 453
450 463
450 472
450 473
450 474
451 452
451 453
451 472
451 487
451 488
451 489
452 453
452 475
452 503
452 504
452 505
453 576
454 455
454 456
454 457
454 468
454 469
454 470
454 471
455 456
455 457
455 478
455 500
455 510
455 513
456 457
456 527
456 535
456 537
456 538
457 564
458 459
458 460
458 461
458 462
458 480
458 481
458 482
458 483
459 460
459 461
459 462
459 514
459 515
459 516
459 517
460 461
460 462
460 488
460 519
460 529
460 531
461 462
461 498
461 520
461 535
461 536
462 563
463 464
463 465
463 466
463 467
463 472
463 473
463 474
464 465
464 466
464 467
464 497
464 506
464 507
464 508
465 466
465 467
465 477
465 510
465 511
465 512
466 467
466 503
466 526
466 527
466 528
467 554
468 469
468 470
468 471
468 480
468 484
468 485
468 486
469 470
469 471
469 490
469 491
469 492
469 493
470 471
470 481
470 490
470 494
470 495
471 559
472 473
472 474
472 487
472 488
472 489
473 474
473 515
473 533
473 542
473 543
474 566
475 476
475 477
475 478
475 479
475 503
475 504
475 505
476 477
476 478
476 479
476 482
476 494
476 506
476 509
477 478
477 479
477 510
477 511
477 512
478 479
478 500
478 510
478 513
479 571
480 481
480 482
480 483
480 484
480 485
480 486
481 482
481 483
481 490
481 494
481 495
482 483
482 494
482 506
482 509
483 552
484 485
484 486
484 504
484 526
484 529
484 530
485 486
485 492
485 532
485 539
485 541
486 557
487 488
487 489
487 496
487 497
487 498
487 499
488 489
488 519
488 529
488 531
489 575
490 491
490 492
490 493
490 494
490 495
491 492
491 493
491 496
491 500
491 501
491 502
492 493
492 532
492 539
492 541
493 561
494 495
494 506
494 509
495 568
496 497
496 498
496 499
496 500
496 501
496 502
497 498
497 499
497 506
497 507
497 508
498 499
498 520
498 535
498 536
499 565
500 501
500 502
500 510
500 513
501 502
501 518
501 523
501 524
501 525
502 567
503 504
503 505
503 526
503 527
503 528
504 505
504 526
504 529
504 530
505 572
506 507
506 508
506 509
507 508
507 516
507 521
507 542
507 544
508 548
509 562
510 511
510 512
510 513
511 512
511 524
511 537
511 539
511 540
512 545
513 553
514 515
514 516
514 517
514 523
514 532
514 533
514 534
515 516
515 517
515 533
515 542
515 543
516 517
516 521
516 542
516 544
517 547
518 519
518 520
518 521
518 522
518 523
518 524
518 525
519 520
519 521
519 522
519 529
519 531
520 521
520 522
520 535
520 536
521 522
521 542
521 544
522 551
523 524
523 525
523 532
523 533
523 534
524 525
524 537
524 539
524 540
525 555
526 527
526 528
526 529
526 530
527 528
527 535
527 537
527 538
528 560
529 530
529 531
530 549
531 570
532 533
532 534
532 539
532 541
533 534
533 542
533 543
534 556
535 536
535 537
535 538
536 569
537 538
537 539
537 540
538 573
539 540
539 541
540 550
541 558
542 543
542 544
543 546
544 574
